Route #1: 54 8 76 41 61 46 42 51 12 65 69 47 98 25 127
Route #2: 20 22 34 7 44 75 33 3 64 18 19 67 62 114 96 102
Route #3: 35 36 94 66 56 123 43 142 95 129 88 106 100 31
Route #4: 78 79 52 90 145 38 11 48 26 28 150 45 50 72 59
Route #5: 13 71 5 16 32 57 131 37 6 49 24 23 73 68
Route #6: 80 116 111 154 140 99 130 58 86 53 152 91 81 74 136
Route #7: 155 158 120 39 146 151 101 4 87 137 108 125 92 156 115 141
Route #8: 105 139 126 138 149 89 97 14 133 107 122 84 144 135 119
Route #9: 143 160 153 110 128 124 134 148 109 82 118 30 40 157 112 132
Route #10: 93 103 2 60 21 27 117 9 1 55 85 121 147 159
Route #11: 70 113 63 104 83 161 77 17 10 29 15
Cost 16597
